NAME : sanfoundry
TYPE : TSP
COMMENT : 10 cities
DIMENSION : 10
EDGE_WEIGHT_TYPE : EXPLICIT
EDGE_WEIGHT_FORMAT : LOWER_DIAG_ROW 
DISPLAY_DATA_TYPE : TWOD_DISPLAY
EDGE_WEIGHT_SECTION
  0 374   0 200 255    0 223 166 128   0
108 433 277 430   0  178 199 128  47 453
  0 252 135 180  52  478  91   0 285  95
160  84 344 110 114    0 240 136 131  40
389  64  83  47   0  356  17 247 155 423
181 117  78 118   0                                                   
DISPLAY_DATA_SECTION
EOF



  
